(set-logic BV) (define-fun origCir ((n225 Bool) (n441 Bool) (n168 Bool) (n220 Bool) (n218 Bool) (i_9 Bool)) Bool (and (and (and n441 (xor (and n220 n168) (not n218))) n225) i_9)) (synth-fun skel ((n225 Bool) (n441 Bool) (n168 Bool) (n220 Bool) (n218 Bool) (i_9 Bool)) Bool) (declare-var n225 Bool) (declare-var n441 Bool) (declare-var n168 Bool) (declare-var n220 Bool) (declare-var n218 Bool) (declare-var i_9 Bool) (constraint (= (origCir n225 n441 n168 n220 n218 i_9) (skel n225 n441 n168 n220 n218 i_9))) (check-synth)
